
   7    4
  10   10   10   10

   0   0   0   0   0   2 2 6 
   3  10  10  10  10   1 3 
   8  10  10  10  10   2 5 4 
  10  10  10  10  10   1 7
   2  10  10  10  10   1 7
  10  10  10  10  10   1 7
   0   0   0   0   0   0 
